15877.35 0
0 197 185 182 171 170 166 157 154 142 153 158 165 168 164 172 173 180 181 186 196 195 187 188 194 193 192 191 1 2 3 4 15 22 21 16 17 18 19 20 23 39 54 55 56 57 58 59 60 53 61 62 52 49 48 47 42 40 38 24 69 25 26 31 32 34 35 33 30 29 27 70 28 37 44 36 41 43 46 45 50 51 63 64 65 66 72 71 90 89 88 91 87 92 93 86 96 97 98 95 94 79 85 84 80 78 75 74 73 76 77 81 83 82 68 67 8 9 10 11 7 6 12 13 14 5 190 189 178 177 161 147 146 133 137 145 149 148 162 176 175 174 179 163 150 144 151 160 159 152 143 136 129 130 135 134 131 132 124 125 126 128 127 121 120 122 123 119 118 117 116 115 114 113 112 138 99 100 105 104 101 102 103 106 107 108 109 110 111 139 140 141 155 156 167 169 183 184